
Gurobi 6.5.2 (win64) logging started 07/23/16 03:34:57


Gurobi 6.5.2 (win64) logging started 07/23/16 03:34:57

Optimize a model with 23145 rows, 984 columns and 48223 nonzeros
Coefficient statistics:
  Matrix range    [1e+00, 5e+01]
  Objective range [7e+00, 5e+01]
  Bounds range    [1e+00, 1e+00]
  RHS range       [1e+00, 8e+02]
Presolve removed 22952 rows and 40 columns
Presolve time: 0.04s
Presolved: 193 rows, 944 columns, 4176 nonzeros
Variable types: 0 continuous, 944 integer (944 binary)

Root relaxation: objective 7.520000e+02, 365 iterations, 0.00 seconds

    Nodes    |    Current Node    |     Objective Bounds      |     Work
 Expl Unexpl |  Obj  Depth IntInf | Incumbent    BestBd   Gap | It/Node Time

*    0     0               0     752.0000000  752.00000  0.00%     -    0s

Explored 0 nodes (518 simplex iterations) in 0.07 seconds
Thread count was 8 (of 8 available processors)

Optimal solution found (tolerance 1.00e-04)
Best objective 7.520000000000e+02, best bound 7.520000000000e+02, gap 0.0%

Wrote requested result file 'H2\instance27\\Results27SG_Sol5.lp'

